0
Node Left Objective IInf Best_Integer Best_Bound ItCnt Gap
0+ 0 nan nan 136.4723 0.0000 nan 100.00%
0+ 0 nan nan 106.7571 0.0000 nan 100.00%
0 0 41.7256 16 106.7571 41.7256 150 60.92%
0+ 0 nan nan 56.9575 41.7256 nan 26.74%
0 2 42.7329 14 56.9575 42.7936 150 24.87%
CPXPARAM_MIP_Cuts_GUBCovers 0
1
Node Left Objective IInf Best_Integer Best_Bound ItCnt Gap
0+ 0 nan nan 136.4723 0.0000 nan 100.00%
0+ 0 nan nan 109.7136 0.0000 nan 100.00%
0 0 0.0000 30 109.7136 0.0000 92 100.00%
0+ 0 nan nan 35.6502 0.0000 nan 100.00%
0+ 0 nan nan 18.9202 0.0000 nan 100.00%
0 2 0.0000 30 18.9202 0.0000 92 100.00%
CPXPARAM_MIP_Cuts_GUBCovers 0
2
Node Left Objective IInf Best_Integer Best_Bound ItCnt Gap
0+ 0 nan nan 136.4723 0.0000 nan 100.00%
0+ 0 nan nan 74.9311 0.0000 nan 100.00%
0 0 29.9311 18 74.9311 29.9311 133 60.06%
0+ 0 nan nan 66.3953 29.9311 nan 54.92%
0+ 0 nan nan 52.5857 29.9311 nan 43.08%
0+ 0 nan nan 47.1520 29.9311 nan 36.52%
0 2 29.9311 17 47.1520 29.9311 133 36.52%
CPXPARAM_MIP_Cuts_GUBCovers 0
3
Node Left Objective IInf Best_Integer Best_Bound ItCnt Gap
0+ 0 nan nan 136.4723 0.0000 nan 100.00%
0+ 0 nan nan 84.2825 0.0000 nan 100.00%
0 0 0.0000 24 84.2825 0.0000 88 100.00%
0+ 0 nan nan 19.0770 0.0000 nan 100.00%
0+ 0 nan nan 7.5378 0.0000 nan 100.00%
0 2 0.0000 24 7.5378 0.0000 88 100.00%
CPXPARAM_MIP_Cuts_GUBCovers 0
4
Node Left Objective IInf Best_Integer Best_Bound ItCnt Gap
0+ 0 nan nan 115.1924 0.0000 nan 100.00%
0+ 0 nan nan 108.1598 0.0000 nan 100.00%
0+ 0 nan nan 98.2525 0.0000 nan 100.00%
0 0 47.1290 16 98.2525 47.1290 129 52.03%
0+ 0 nan nan 56.1818 47.1290 nan 16.11%
0+ 0 nan nan 56.1818 47.1290 nan 16.11%
0 2 47.1747 11 56.1818 47.1748 129 16.03%
CPXPARAM_MIP_Cuts_GUBCovers 0
5
Node Left Objective IInf Best_Integer Best_Bound ItCnt Gap
0+ 0 nan nan 115.1924 0.0000 nan 100.00%
0+ 0 nan nan 108.1598 0.0000 nan 100.00%
0 0 0.0000 29 108.1598 0.0000 91 100.00%
0+ 0 nan nan 50.1713 0.0000 nan 100.00%
0+ 0 nan nan 24.1642 0.0000 nan 100.00%
0+ 0 nan nan 23.4329 0.0000 nan 100.00%
0 2 0.0000 29 23.4329 0.0000 91 100.00%
CPXPARAM_MIP_Cuts_GUBCovers 0
6
Node Left Objective IInf Best_Integer Best_Bound ItCnt Gap
0+ 0 nan nan 115.1924 0.0000 nan 100.00%
0+ 0 nan nan 83.4808 0.0000 nan 100.00%
0 0 43.9374 9 83.4808 43.9374 117 47.37%
0+ 0 nan nan 50.7613 43.9374 nan 13.44%
0 2 43.9374 6 50.7613 43.9374 117 13.44%
CPXPARAM_MIP_Cuts_GUBCovers 0
7
Node Left Objective IInf Best_Integer Best_Bound ItCnt Gap
0+ 0 nan nan 115.1924 0.0000 nan 100.00%
0+ 0 nan nan 87.9605 0.0000 nan 100.00%
0 0 0.0000 25 87.9605 0.0000 90 100.00%
0+ 0 nan nan 28.3687 0.0000 nan 100.00%
0+ 0 nan nan 20.5080 0.0000 nan 100.00%
0+ 0 nan nan 14.2428 0.0000 nan 100.00%
0 2 0.0000 25 14.2428 0.0000 90 100.00%
CPXPARAM_MIP_Cuts_GUBCovers 0
8
Node Left Objective IInf Best_Integer Best_Bound ItCnt Gap
0+ 0 nan nan 131.6037 0.0000 nan 100.00%
0+ 0 nan nan 114.7061 0.0000 nan 100.00%
0+ 0 nan nan 109.8445 0.0000 nan 100.00%
0 0 58.1018 15 109.8445 58.1018 140 47.11%
0+ 0 nan nan 81.1413 58.1018 nan 28.39%
0+ 0 nan nan 74.6331 58.1018 nan 22.15%
0 2 58.1018 15 74.6331 58.2928 140 21.89%
CPXPARAM_MIP_Cuts_GUBCovers 0
9
Node Left Objective IInf Best_Integer Best_Bound ItCnt Gap
0+ 0 nan nan 131.6037 0.0000 nan 100.00%
0+ 0 nan nan 115.2596 0.0000 nan 100.00%
0 0 0.0000 30 115.2596 0.0000 90 100.00%
0+ 0 nan nan 32.4537 0.0000 nan 100.00%
0+ 0 nan nan 27.3992 0.0000 nan 100.00%
0 2 0.0000 30 27.3992 0.0000 90 100.00%
CPXPARAM_MIP_Cuts_GUBCovers 0
10
Node Left Objective IInf Best_Integer Best_Bound ItCnt Gap
0+ 0 nan nan 131.6037 0.0000 nan 100.00%
0+ 0 nan nan 101.5820 0.0000 nan 100.00%
0 0 41.3973 11 101.5820 41.3973 130 59.25%
0+ 0 nan nan 85.5775 41.3973 nan 51.63%
0+ 0 nan nan 69.6595 41.3973 nan 40.57%
0 2 41.3973 11 69.6595 41.3973 130 40.57%
CPXPARAM_MIP_Cuts_GUBCovers 0
11
Node Left Objective IInf Best_Integer Best_Bound ItCnt Gap
0+ 0 nan nan 131.6037 0.0000 nan 100.00%
0+ 0 nan nan 110.1690 0.0000 nan 100.00%
0 0 0.0000 26 110.1690 0.0000 82 100.00%
0+ 0 nan nan 60.2130 0.0000 nan 100.00%
0+ 0 nan nan 44.2689 0.0000 nan 100.00%
0+ 0 nan nan 19.3283 0.0000 nan 100.00%
0 2 0.0000 26 19.3283 0.0000 82 100.00%
CPXPARAM_MIP_Cuts_GUBCovers 0
12
Node Left Objective IInf Best_Integer Best_Bound ItCnt Gap
0+ 0 nan nan 110.3567 0.0000 nan 100.00%
0+ 0 nan nan 99.5973 0.0000 nan 100.00%
0 0 42.3231 15 99.5973 42.3231 151 57.51%
0+ 0 nan nan 55.9495 42.3231 nan 24.35%
0 2 42.3231 15 55.9495 42.6675 151 23.74%
CPXPARAM_MIP_Cuts_GUBCovers 0
13
Node Left Objective IInf Best_Integer Best_Bound ItCnt Gap
0+ 0 nan nan 110.3567 0.0000 nan 100.00%
0+ 0 nan nan 99.8555 0.0000 nan 100.00%
0 0 0.0000 26 99.8555 0.0000 87 100.00%
0+ 0 nan nan 36.0783 0.0000 nan 100.00%
0+ 0 nan nan 32.1779 0.0000 nan 100.00%
0+ 0 nan nan 31.7036 0.0000 nan 100.00%
0 2 0.0000 26 31.7036 0.0000 87 100.00%
CPXPARAM_MIP_Cuts_GUBCovers 0
14
Node Left Objective IInf Best_Integer Best_Bound ItCnt Gap
0+ 0 nan nan 110.3567 0.0000 nan 100.00%
0+ 0 nan nan 83.1075 0.0000 nan 100.00%
0 0 32.4848 16 83.1075 32.4848 121 60.91%
0+ 0 nan nan 57.6461 32.4848 nan 43.65%
0+ 0 nan nan 53.4178 32.4848 nan 39.19%
0+ 0 nan nan 52.2228 32.4848 nan 37.80%
0+ 0 nan nan 47.5373 32.4848 nan 31.66%
0 2 32.4848 16 47.5373 32.6020 121 31.42%
CPXPARAM_MIP_Cuts_GUBCovers 0
15
Node Left Objective IInf Best_Integer Best_Bound ItCnt Gap
0+ 0 nan nan 110.3567 0.0000 nan 100.00%
0+ 0 nan nan 94.4733 0.0000 nan 100.00%
0 0 0.0000 24 94.4733 0.0000 83 100.00%
0+ 0 nan nan 35.3044 0.0000 nan 100.00%
0+ 0 nan nan 14.0213 0.0000 nan 100.00%
0 2 0.0000 24 14.0213 0.0000 83 100.00%
CPXPARAM_MIP_Cuts_GUBCovers 0
16
Node Left Objective IInf Best_Integer Best_Bound ItCnt Gap
0+ 0 nan nan 109.2984 0.0000 nan 100.00%
0+ 0 nan nan 98.2414 0.0000 nan 100.00%
0 0 47.2432 17 98.2414 47.2432 152 51.91%
0+ 0 nan nan 88.2522 47.2432 nan 46.47%
0+ 0 nan nan 65.1297 47.2432 nan 27.46%
0 2 47.2432 17 65.1297 47.2465 152 27.46%
CPXPARAM_MIP_Cuts_GUBCovers 0
17
Node Left Objective IInf Best_Integer Best_Bound ItCnt Gap
0+ 0 nan nan 109.2984 0.0000 nan 100.00%
0+ 0 nan nan 98.8898 0.0000 nan 100.00%
0 0 0.0000 28 98.8898 0.0000 89 100.00%
0+ 0 nan nan 29.7958 0.0000 nan 100.00%
0+ 0 nan nan 27.8680 0.0000 nan 100.00%
0+ 0 nan nan 27.4828 0.0000 nan 100.00%
0 2 0.0000 28 27.4828 0.0000 89 100.00%
CPXPARAM_MIP_Cuts_GUBCovers 0
18
Node Left Objective IInf Best_Integer Best_Bound ItCnt Gap
0+ 0 nan nan 109.2984 0.0000 nan 100.00%
0+ 0 nan nan 89.2500 0.0000 nan 100.00%
0 0 50.2018 12 89.2500 50.2018 126 43.75%
0+ 0 nan nan 65.9464 50.2018 nan 23.87%
0 2 50.2018 12 65.9464 50.2018 126 23.87%
CPXPARAM_MIP_Cuts_GUBCovers 0
19
Node Left Objective IInf Best_Integer Best_Bound ItCnt Gap
0+ 0 nan nan 109.2984 0.0000 nan 100.00%
0+ 0 nan nan 95.6739 0.0000 nan 100.00%
0 0 0.0000 26 95.6739 0.0000 87 100.00%
0+ 0 nan nan 34.5842 0.0000 nan 100.00%
0+ 0 nan nan 25.1550 0.0000 nan 100.00%
0 2 0.0000 26 25.1550 0.0000 87 100.00%
CPXPARAM_MIP_Cuts_GUBCovers 0
20
Node Left Objective IInf Best_Integer Best_Bound ItCnt Gap
0+ 0 nan nan 93.3792 0.0000 nan 100.00%
0+ 0 nan nan 84.7371 0.0000 nan 100.00%
0 0 27.9048 17 84.7371 27.9048 138 67.07%
0+ 0 nan nan 34.8222 27.9048 nan 19.87%
0 2 27.9923 13 34.8222 28.0697 138 19.39%
CPXPARAM_MIP_Cuts_GUBCovers 0
21
Node Left Objective IInf Best_Integer Best_Bound ItCnt Gap
0+ 0 nan nan 93.3792 0.0000 nan 100.00%
0+ 0 nan nan 84.7371 0.0000 nan 100.00%
0 0 0.0000 29 84.7371 0.0000 97 100.00%
0+ 0 nan nan 39.5455 0.0000 nan 100.00%
0+ 0 nan nan 25.2703 0.0000 nan 100.00%
0+ 0 nan nan 22.3554 0.0000 nan 100.00%
0 2 0.0000 29 22.3554 0.0000 97 100.00%
CPXPARAM_MIP_Cuts_GUBCovers 0
22
Node Left Objective IInf Best_Integer Best_Bound ItCnt Gap
0+ 0 nan nan 93.3792 0.0000 nan 100.00%
0+ 0 nan nan 79.8100 0.0000 nan 100.00%
0 0 25.8187 13 79.8100 25.8187 129 67.65%
0+ 0 nan nan 31.0782 25.8187 nan 16.92%
0+ 0 nan nan 30.5448 25.8187 nan 15.47%
0 2 25.8187 4 30.5448 25.8187 129 15.47%
CPXPARAM_MIP_Cuts_GUBCovers 0
23
Node Left Objective IInf Best_Integer Best_Bound ItCnt Gap
0+ 0 nan nan 93.3792 0.0000 nan 100.00%
0+ 0 nan nan 79.4789 0.0000 nan 100.00%
0 0 0.0000 24 79.4789 0.0000 85 100.00%
0+ 0 nan nan 12.1073 0.0000 nan 100.00%
0+ 0 nan nan 10.4085 0.0000 nan 100.00%
0+ 0 nan nan 8.9743 0.0000 nan 100.00%
0 2 0.0000 24 8.9743 0.0000 85 100.00%
CPXPARAM_MIP_Cuts_GUBCovers 0
24
Node Left Objective IInf Best_Integer Best_Bound ItCnt Gap
0+ 0 nan nan 94.5045 0.0000 nan 100.00%
0+ 0 nan nan 83.7373 0.0000 nan 100.00%
0 0 30.0098 21 83.7373 30.0098 137 64.16%
0+ 0 nan nan 42.1069 30.0098 nan 28.73%
0+ 0 nan nan 38.6714 30.0098 nan 22.40%
0 2 30.0098 13 38.6714 30.1514 137 22.03%
CPXPARAM_MIP_Cuts_GUBCovers 0
25
Node Left Objective IInf Best_Integer Best_Bound ItCnt Gap
0+ 0 nan nan 94.5045 0.0000 nan 100.00%
0+ 0 nan nan 83.7373 0.0000 nan 100.00%
0 0 0.0000 27 83.7373 0.0000 93 100.00%
0+ 0 nan nan 26.7172 0.0000 nan 100.00%
0+ 0 nan nan 16.3046 0.0000 nan 100.00%
0 2 0.0000 27 16.3046 0.0000 93 100.00%
CPXPARAM_MIP_Cuts_GUBCovers 0
26
Node Left Objective IInf Best_Integer Best_Bound ItCnt Gap
0+ 0 nan nan 94.5045 0.0000 nan 100.00%
0+ 0 nan nan 81.5690 0.0000 nan 100.00%
0 0 30.5909 7 81.5690 30.5909 124 62.50%
0+ 0 nan nan 37.1692 30.5909 nan 17.70%
0 2 30.5909 7 37.1692 30.5909 124 17.70%
CPXPARAM_MIP_Cuts_GUBCovers 0
27
Node Left Objective IInf Best_Integer Best_Bound ItCnt Gap
0+ 0 nan nan 94.5045 0.0000 nan 100.00%
0+ 0 nan nan 84.3474 0.0000 nan 100.00%
0 0 0.0000 24 84.3474 0.0000 84 100.00%
0+ 0 nan nan 19.2212 0.0000 nan 100.00%
0+ 0 nan nan 17.7458 0.0000 nan 100.00%
0+ 0 nan nan 11.8054 0.0000 nan 100.00%
0+ 0 nan nan 10.2966 0.0000 nan 100.00%
0 2 0.0000 24 10.2966 0.0000 84 100.00%
CPXPARAM_MIP_Cuts_GUBCovers 0
28
Node Left Objective IInf Best_Integer Best_Bound ItCnt Gap
0+ 0 nan nan 133.7092 0.0000 nan 100.00%
0+ 0 nan nan 130.0630 0.0000 nan 100.00%
0+ 0 nan nan 108.6480 0.0000 nan 100.00%
0 0 63.9057 16 108.6480 63.9057 141 41.18%
0+ 0 nan nan 82.7575 63.9057 nan 22.78%
0+ 0 nan nan 81.1006 63.9057 nan 21.20%
0+ 0 nan nan 80.6397 63.9057 nan 20.75%
0 2 63.9057 16 80.6397 63.9955 141 20.64%
CPXPARAM_MIP_Cuts_GUBCovers 0
29
Node Left Objective IInf Best_Integer Best_Bound ItCnt Gap
0+ 0 nan nan 133.7092 0.0000 nan 100.00%
0+ 0 nan nan 129.6212 0.0000 nan 100.00%
0+ 0 nan nan 74.5282 0.0000 nan 100.00%
0 0 0.0000 27 74.5282 0.0000 117 100.00%
0+ 0 nan nan 18.1579 0.0000 nan 100.00%
0+ 0 nan nan 16.1240 0.0000 nan 100.00%
0 2 0.0000 27 16.1240 0.0000 117 100.00%
CPXPARAM_MIP_Cuts_GUBCovers 0
30
Node Left Objective IInf Best_Integer Best_Bound ItCnt Gap
0+ 0 nan nan 133.7092 0.0000 nan 100.00%
0+ 0 nan nan 117.3461 0.0000 nan 100.00%
0 0 64.7235 6 117.3461 64.7235 116 44.84%
0+ 0 nan nan 74.6673 64.7235 nan 13.32%
0 2 64.7235 6 74.6673 64.7235 116 13.32%
CPXPARAM_MIP_Cuts_GUBCovers 0
31
Node Left Objective IInf Best_Integer Best_Bound ItCnt Gap
0+ 0 nan nan 133.7092 0.0000 nan 100.00%
0+ 0 nan nan 116.1408 0.0000 nan 100.00%
0 0 0.0000 26 116.1408 0.0000 89 100.00%
0+ 0 nan nan 18.5661 0.0000 nan 100.00%
0+ 0 nan nan 11.1157 0.0000 nan 100.00%
0 2 0.0000 26 11.1157 0.0000 89 100.00%
CPXPARAM_MIP_Cuts_GUBCovers 0
32
Node Left Objective IInf Best_Integer Best_Bound ItCnt Gap
0+ 0 nan nan 110.7059 0.0000 nan 100.00%
0+ 0 nan nan 95.8126 0.0000 nan 100.00%
0+ 0 nan nan 89.9070 0.0000 nan 100.00%
0 0 40.8280 15 89.9070 40.8280 140 54.59%
0+ 0 nan nan 52.9281 40.8280 nan 22.86%
0 2 41.2662 14 52.9281 41.4098 140 21.76%
CPXPARAM_MIP_Cuts_GUBCovers 0
33
Node Left Objective IInf Best_Integer Best_Bound ItCnt Gap
0+ 0 nan nan 110.7059 0.0000 nan 100.00%
0+ 0 nan nan 95.5094 0.0000 nan 100.00%
0 0 0.0000 26 95.5094 0.0000 93 100.00%
0+ 0 nan nan 34.1998 0.0000 nan 100.00%
0+ 0 nan nan 29.0549 0.0000 nan 100.00%
0+ 0 nan nan 25.6413 0.0000 nan 100.00%
0 2 0.0000 25 25.6413 0.0000 93 100.00%
CPXPARAM_MIP_Cuts_GUBCovers 0
34
Node Left Objective IInf Best_Integer Best_Bound ItCnt Gap
0+ 0 nan nan 110.7059 0.0000 nan 100.00%
0+ 0 nan nan 77.5207 0.0000 nan 100.00%
0 0 30.3783 14 77.5207 30.3783 127 60.81%
0+ 0 nan nan 55.3937 30.3783 nan 45.16%
0+ 0 nan nan 44.6459 30.3783 nan 31.96%
0 2 30.3783 14 44.6459 30.3783 127 31.96%
CPXPARAM_MIP_Cuts_GUBCovers 0
35
Node Left Objective IInf Best_Integer Best_Bound ItCnt Gap
0+ 0 nan nan 110.7059 0.0000 nan 100.00%
0+ 0 nan nan 92.0846 0.0000 nan 100.00%
0 0 0.0000 24 92.0846 0.0000 86 100.00%
0+ 0 nan nan 14.7394 0.0000 nan 100.00%
0+ 0 nan nan 11.8356 0.0000 nan 100.00%
0 2 0.0000 24 11.8356 0.0000 86 100.00%
CPXPARAM_MIP_Cuts_GUBCovers 0
36
Node Left Objective IInf Best_Integer Best_Bound ItCnt Gap
0+ 0 nan nan 123.7135 0.0000 nan 100.00%
0+ 0 nan nan 109.1977 0.0000 nan 100.00%
0+ 0 nan nan 99.0366 0.0000 nan 100.00%
0 0 34.8231 16 99.0366 34.8231 140 64.84%
0+ 0 nan nan 61.2031 34.8231 nan 43.10%
0+ 0 nan nan 60.0045 34.8231 nan 41.97%
0 2 34.8231 16 60.0045 35.0541 140 41.58%
CPXPARAM_MIP_Cuts_GUBCovers 0
37
Node Left Objective IInf Best_Integer Best_Bound ItCnt Gap
0+ 0 nan nan 123.7135 0.0000 nan 100.00%
0+ 0 nan nan 109.7704 0.0000 nan 100.00%
0 0 0.0000 29 109.7704 0.0000 88 100.00%
0+ 0 nan nan 44.1875 0.0000 nan 100.00%
0+ 0 nan nan 27.6192 0.0000 nan 100.00%
0 2 0.0000 29 27.6192 0.0000 88 100.00%
CPXPARAM_MIP_Cuts_GUBCovers 0
38
Node Left Objective IInf Best_Integer Best_Bound ItCnt Gap
0+ 0 nan nan 123.7135 0.0000 nan 100.00%
0+ 0 nan nan 95.3556 0.0000 nan 100.00%
0 0 42.9033 7 95.3556 42.9033 120 55.01%
0+ 0 nan nan 51.1711 42.9033 nan 16.16%
0 2 42.9033 4 51.1711 42.9033 120 16.16%
CPXPARAM_MIP_Cuts_GUBCovers 0
39
Node Left Objective IInf Best_Integer Best_Bound ItCnt Gap
0+ 0 nan nan 123.7135 0.0000 nan 100.00%
0+ 0 nan nan 90.9010 0.0000 nan 100.00%
0 0 0.0000 25 90.9010 0.0000 82 100.00%
0+ 0 nan nan 44.8044 0.0000 nan 100.00%
0+ 0 nan nan 41.6977 0.0000 nan 100.00%
0+ 0 nan nan 24.9446 0.0000 nan 100.00%
0 2 0.0000 25 24.9446 0.0000 82 100.00%
CPXPARAM_MIP_Cuts_GUBCovers 0
